
Gurobi 10.0.1 (win64) logging started Sat Jun 10 18:09:32 2023

Set parameter LogFile to value "results/log/Fattahi_setup_04_modified_deadline.log"
Gurobi Optimizer version 10.0.1 build v10.0.1rc0 (win64)

CPU model: AMD Ryzen 7 3700X 8-Core Processor, instruction set [SSE2|AVX|AVX2]
Thread count: 8 physical cores, 16 logical processors, using up to 16 threads

Optimize a model with 87 rows, 67 columns and 304 nonzeros
Model fingerprint: 0x0d4c287f
Variable types: 0 continuous, 67 integer (56 binary)
Coefficient statistics:
  Matrix range     [1e+00, 1e+09]
  Objective range  [1e+00, 1e+00]
  Bounds range     [1e+00, 1e+00]
  RHS range        [1e+00, 3e+09]
Warning: Model contains large matrix coefficients
Warning: Model contains large rhs
         Consider reformulating model or setting NumericFocus parameter
         to avoid numerical issues.
Presolve removed 32 rows and 41 columns
Presolve time: 0.00s
Presolved: 55 rows, 26 columns, 212 nonzeros
Variable types: 0 continuous, 26 integer (16 binary)

Root relaxation: objective 4.730000e+02, 8 iterations, 0.00 seconds (0.00 work units)

    Nodes    |    Current Node    |     Objective Bounds      |     Work
 Expl Unexpl |  Obj  Depth IntInf | Incumbent    BestBd   Gap | It/Node Time

     0     0  473.00000    0    6          -  473.00000      -     -    0s
H    0     0                     948.0000000  473.00000  50.1%     -    0s
H    0     0                     653.0000000  473.00000  27.6%     -    0s
     0     0  482.00000    0    7  653.00000  482.00000  26.2%     -    0s
     0     0  499.00000    0    7  653.00000  499.00000  23.6%     -    0s
     0     0  510.00000    0    8  653.00000  510.00000  21.9%     -    0s
     0     0  518.00000    0    8  653.00000  518.00000  20.7%     -    0s

Cutting planes:
  Implied bound: 1
  MIR: 1
  Flow cover: 3
  Mod-K: 1

Explored 1 nodes (22 simplex iterations) in 0.01 seconds (0.00 work units)
Thread count was 16 (of 16 available processors)

Solution count 2: 653 948 

Optimal solution found (tolerance 1.00e-04)
Best objective 6.530000000000e+02, best bound 6.530000000000e+02, gap 0.0000%
Warning: variable name "y[job:0, stage:0, machine:1]" has a space
Warning: constraint name "precedence between 1,0 to 0,0 if x_[j,l,h,z,i]=1" has a space
Warning: to let Gurobi read it back, use rlp format
Warning: variable name "y[job:0, stage:0, machine:1]" has a space
Warning: constraint name "precedence between 1,0 to 0,0 if x_[j,l,h,z,i]=1" has a space
Warning: default variable names used to write mps file
Warning: default constraint names used to write mps file
Warning: variable name "y[job:0, stage:0, machine:1]" has a space
Warning: default variable names used to write solution file
